N = 5;
H = 5;
T = 2;

avail = array3d(1..N, 1..H, 1..T, [5, 3, 1, 1, 10, 9, 1, 8, 10, 3, 1, 8, 7, 7, 8, 5, 6, 3, 3, 1, 8, 5, 10, 6, 6, 8, 4, 7, 10, 1, 10, 6, 8, 8, 9, 2, 6, 0, 8, 9, 4, 5, 10, 1, 8, 5, 9, 8, 10, 1]);

r = array2d(1..H, 1..T, [2, 1, 1, 2, 2, 2, 1, 0, 2, 1]);
